Version identifier: 20.1.0.0 | 2020-11-10 | 9bedb6d68
Tried aggregator 3 times.
MIP Presolve eliminated 1716 rows and 937 columns.
MIP Presolve modified 3341 coefficients.
Aggregator did 166 substitutions.
Reduced MIP has 1324 rows, 1103 columns, and 4146 nonzeros.
Reduced MIP has 257 binaries, 846 generals, 0 SOSs, and 0 indicators.
Presolve time = 0.02 sec. (8.48 ticks)
Found incumbent of value 23.000000 after 0.03 sec. (13.25 ticks)
Probing fixed 37 vars, tightened 329 bounds.
Probing time = 0.00 sec. (1.75 ticks)
Tried aggregator 2 times.
Detecting symmetries...
MIP Presolve eliminated 512 rows and 83 columns.
MIP Presolve modified 108 coefficients.
Aggregator did 24 substitutions.
Reduced MIP has 788 rows, 996 columns, and 2459 nonzeros.
Reduced MIP has 434 binaries, 562 generals, 0 SOSs, and 0 indicators.
Presolve time = 0.01 sec. (3.83 ticks)
Probing time = 0.00 sec. (0.32 ticks)
Clique table members: 159.
MIP emphasis: balance optimality and feasibility.
MIP search method: dynamic search.
Parallel mode: deterministic, using up to 24 threads.
Root relaxation solution time = 0.01 sec. (3.23 ticks)

        Nodes                                         Cuts/
   Node  Left     Objective  IInf  Best Integer    Best Bound    ItCnt     Gap

*     0+    0                           23.0000        0.0000           100.00%
      0     0        0.6667    53       23.0000        0.6667      291   97.10%
*     0+    0                           13.0000        0.6667            94.87%
      0     0        2.0419   287       13.0000      Cuts: 31      628   84.29%
      0     0        2.3333   218       13.0000     Cuts: 139      708   82.05%
      0     0        2.3333   217       13.0000      Cuts: 63      806   82.05%
      0     0        2.4011   184       13.0000      Cuts: 20      972   81.53%
*     0+    0                            9.0000        2.4011            73.32%
      0     0        cutoff              9.0000        9.0000     1105    0.00%
Elapsed time = 0.21 sec. (99.73 ticks, tree = 0.01 MB, solutions = 3)

Implied bound cuts applied:  31
Flow cuts applied:  5
Mixed integer rounding cuts applied:  29
Zero-half cuts applied:  60
Gomory fractional cuts applied:  4

Root node processing (before b&c):
  Real time             =    0.21 sec. (99.84 ticks)
Parallel b&c, 24 threads:
  Real time             =    0.00 sec. (0.00 ticks)
  Sync time (average)   =    0.00 sec.
  Wait time (average)   =    0.00 sec.
                          ------------
Total (root+branch&cut) =    0.21 sec. (99.84 ticks)

Solution status = Optimal
Solution LB = 9
Solution UB = 9
Runtime = 0.216242 seconds
	Command being timed: "/home/min/git_repos/CS598MEBProject/CNT-ILP/build/cnt -s 2 ./output/k6_n40/simC_c1_k6_n40_u3_s2_del04.input-left.cnp"
	User time (seconds): 1.59
	System time (seconds): 0.02
	Percent of CPU this job got: 637%
	Elapsed (wall clock) time (h:mm:ss or m:ss): 0:00.25
	Average shared text size (kbytes): 0
	Average unshared data size (kbytes): 0
	Average stack size (kbytes): 0
	Average total size (kbytes): 0
	Maximum resident set size (kbytes): 60148
	Average resident set size (kbytes): 0
	Major (requiring I/O) page faults: 0
	Minor (reclaiming a frame) page faults: 12298
	Voluntary context switches: 1799
	Involuntary context switches: 187
	Swaps: 0
	File system inputs: 0
	File system outputs: 16
	Socket messages sent: 0
	Socket messages received: 0
	Signals delivered: 0
	Page size (bytes): 4096
	Exit status: 0
